\Problem name: compact

Minimize
OBJROW: C
Subject To
ord(0,1):  x(0,1) - x(0,2) >= 7
ord(0,2):  x(0,0) - x(0,1) >= 6
ord(1,1):  - x(1,1) + x(1,2) >= 4
ord(1,2):  x(1,0) - x(1,2) >= 8
ord(2,1):  - x(2,1) + x(2,2) >= 4
ord(2,2):  x(2,0) - x(2,2) >= 1
ord(3,1):  x(3,1) - x(3,2) >= 4
ord(3,2):  x(3,0) - x(3,1) >= 3
triangle2(0,1,0):  y(0,1,0) + y(1,0,0) = 1
triangle2(0,1,1):  y(0,1,1) + y(1,0,1) = 1
triangle2(0,1,2):  y(0,1,2) + y(1,0,2) = 1
triangle2(0,2,0):  y(0,2,0) + y(2,0,0) = 1
triangle2(0,2,1):  y(0,2,1) + y(2,0,1) = 1
triangle2(0,2,2):  y(0,2,2) + y(2,0,2) = 1
triangle2(0,3,0):  y(0,3,0) + y(3,0,0) = 1
triangle2(0,3,1):  y(0,3,1) + y(3,0,1) = 1
triangle2(0,3,2):  y(0,3,2) + y(3,0,2) = 1
triangle2(1,2,0):  y(1,2,0) + y(2,1,0) = 1
triangle2(1,2,1):  y(1,2,1) + y(2,1,1) = 1
triangle2(1,2,2):  y(1,2,2) + y(2,1,2) = 1
triangle2(1,3,0):  y(1,3,0) + y(3,1,0) = 1
triangle2(1,3,1):  y(1,3,1) + y(3,1,1) = 1
triangle2(1,3,2):  y(1,3,2) + y(3,1,2) = 1
triangle2(2,3,0):  y(2,3,0) + y(3,2,0) = 1
triangle2(2,3,1):  y(2,3,1) + y(3,2,1) = 1
triangle2(2,3,2):  y(2,3,2) + y(3,2,2) = 1
MCLinV(0,1,0):  x(0,0) - v(0,1,0) - x(1,0) = 3
MCLinV(1,0,0):  - x(0,0) - v(1,0,0) + x(1,0) = 8
MCLin1(0,1,0):  u(0,1,0) >= -0
MCLin2(0,1,0):  -48 y(1,0,0) - u(0,1,0) <= -0
MCLin3(0,1,0):  38 y(1,0,0) + v(0,1,0) - u(0,1,0) <= 38
MCLin4(0,1,0):  38 y(1,0,0) - u(0,1,0) >= -0
MCLin5(0,1,0):  -48 y(1,0,0) + v(0,1,0) - u(0,1,0) >= -48
MCLin6(1,0,0):  u(1,0,0) >= -0
MCLin7(1,0,0):  -49 y(0,1,0) - u(1,0,0) <= -0
MCLin8(1,0,0):  37 y(0,1,0) + v(1,0,0) - u(1,0,0) <= 37
MCLin9(1,0,0):  37 y(0,1,0) - u(1,0,0) >= -0
MCLin10(1,0,0):  -49 y(0,1,0) + v(1,0,0) - u(1,0,0) >= -49
MCLinV(0,1,1):  x(0,1) - v(0,1,1) - x(1,1) = 4
MCLinV(1,0,1):  - x(0,1) - v(1,0,1) + x(1,1) = 6
MCLin1(0,1,1):  u(0,1,1) >= -0
MCLin2(0,1,1):  -43 y(1,0,1) - u(0,1,1) <= -0
MCLin3(0,1,1):  43 y(1,0,1) + v(0,1,1) - u(0,1,1) <= 43
MCLin4(0,1,1):  43 y(1,0,1) - u(0,1,1) >= -0
MCLin5(0,1,1):  -43 y(1,0,1) + v(0,1,1) - u(0,1,1) >= -43
MCLin6(1,0,1):  u(1,0,1) >= -0
MCLin7(1,0,1):  -53 y(0,1,1) - u(1,0,1) <= -0
MCLin8(1,0,1):  33 y(0,1,1) + v(1,0,1) - u(1,0,1) <= 33
MCLin9(1,0,1):  33 y(0,1,1) - u(1,0,1) >= -0
MCLin10(1,0,1):  -53 y(0,1,1) + v(1,0,1) - u(1,0,1) >= -53
MCLinV(0,1,2):  x(0,2) - v(0,1,2) - x(1,2) = 8
MCLinV(1,0,2):  - x(0,2) - v(1,0,2) + x(1,2) = 7
MCLin1(0,1,2):  u(0,1,2) >= -0
MCLin2(0,1,2):  -58 y(1,0,2) - u(0,1,2) <= -0
MCLin3(0,1,2):  28 y(1,0,2) + v(0,1,2) - u(0,1,2) <= 28
MCLin4(0,1,2):  28 y(1,0,2) - u(0,1,2) >= -0
MCLin5(0,1,2):  -58 y(1,0,2) + v(0,1,2) - u(0,1,2) >= -58
MCLin6(1,0,2):  u(1,0,2) >= -0
MCLin7(1,0,2):  -43 y(0,1,2) - u(1,0,2) <= -0
MCLin8(1,0,2):  43 y(0,1,2) + v(1,0,2) - u(1,0,2) <= 43
MCLin9(1,0,2):  43 y(0,1,2) - u(1,0,2) >= -0
MCLin10(1,0,2):  -43 y(0,1,2) + v(1,0,2) - u(1,0,2) >= -43
MCLinV(0,2,0):  x(0,0) - v(0,2,0) - x(2,0) = 6
MCLinV(2,0,0):  - x(0,0) - v(2,0,0) + x(2,0) = 8
MCLin1(0,2,0):  u(0,2,0) >= -0
MCLin2(0,2,0):  -48 y(2,0,0) - u(0,2,0) <= -0
MCLin3(0,2,0):  42 y(2,0,0) + v(0,2,0) - u(0,2,0) <= 42
MCLin4(0,2,0):  42 y(2,0,0) - u(0,2,0) >= -0
MCLin5(0,2,0):  -48 y(2,0,0) + v(0,2,0) - u(0,2,0) >= -48
MCLin6(2,0,0):  u(2,0,0) >= -0
MCLin7(2,0,0):  -56 y(0,2,0) - u(2,0,0) <= -0
MCLin8(2,0,0):  34 y(0,2,0) + v(2,0,0) - u(2,0,0) <= 34
MCLin9(2,0,0):  34 y(0,2,0) - u(2,0,0) >= -0
MCLin10(2,0,0):  -56 y(0,2,0) + v(2,0,0) - u(2,0,0) >= -56
MCLinV(0,2,1):  x(0,1) - v(0,2,1) - x(2,1) = 4
MCLinV(2,0,1):  - x(0,1) - v(2,0,1) + x(2,1) = 6
MCLin1(0,2,1):  u(0,2,1) >= -0
MCLin2(0,2,1):  -47 y(2,0,1) - u(0,2,1) <= -0
MCLin3(0,2,1):  43 y(2,0,1) + v(0,2,1) - u(0,2,1) <= 43
MCLin4(0,2,1):  43 y(2,0,1) - u(0,2,1) >= -0
MCLin5(0,2,1):  -47 y(2,0,1) + v(0,2,1) - u(0,2,1) >= -47
MCLin6(2,0,1):  u(2,0,1) >= -0
MCLin7(2,0,1):  -53 y(0,2,1) - u(2,0,1) <= -0
MCLin8(2,0,1):  37 y(0,2,1) + v(2,0,1) - u(2,0,1) <= 37
MCLin9(2,0,1):  37 y(0,2,1) - u(2,0,1) >= -0
MCLin10(2,0,1):  -53 y(0,2,1) + v(2,0,1) - u(2,0,1) >= -53
MCLinV(0,2,2):  x(0,2) - v(0,2,2) - x(2,2) = 1
MCLinV(2,0,2):  - x(0,2) - v(2,0,2) + x(2,2) = 7
MCLin1(0,2,2):  u(0,2,2) >= -0
MCLin2(0,2,2):  -55 y(2,0,2) - u(0,2,2) <= -0
MCLin3(0,2,2):  35 y(2,0,2) + v(0,2,2) - u(0,2,2) <= 35
MCLin4(0,2,2):  35 y(2,0,2) - u(0,2,2) >= -0
MCLin5(0,2,2):  -55 y(2,0,2) + v(0,2,2) - u(0,2,2) >= -55
MCLin6(2,0,2):  u(2,0,2) >= -0
MCLin7(2,0,2):  -43 y(0,2,2) - u(2,0,2) <= -0
MCLin8(2,0,2):  47 y(0,2,2) + v(2,0,2) - u(2,0,2) <= 47
MCLin9(2,0,2):  47 y(0,2,2) - u(2,0,2) >= -0
MCLin10(2,0,2):  -43 y(0,2,2) + v(2,0,2) - u(2,0,2) >= -43
MCLinV(0,3,0):  x(0,0) - v(0,3,0) - x(3,0) = 7
MCLinV(3,0,0):  - x(0,0) - v(3,0,0) + x(3,0) = 8
MCLin1(0,3,0):  u(0,3,0) >= -0
MCLin2(0,3,0):  -48 y(3,0,0) - u(0,3,0) <= -0
MCLin3(0,3,0):  39 y(3,0,0) + v(0,3,0) - u(0,3,0) <= 39
MCLin4(0,3,0):  39 y(3,0,0) - u(0,3,0) >= -0
MCLin5(0,3,0):  -48 y(3,0,0) + v(0,3,0) - u(0,3,0) >= -48
MCLin6(3,0,0):  u(3,0,0) >= -0
MCLin7(3,0,0):  -54 y(0,3,0) - u(3,0,0) <= -0
MCLin8(3,0,0):  33 y(0,3,0) + v(3,0,0) - u(3,0,0) <= 33
MCLin9(3,0,0):  33 y(0,3,0) - u(3,0,0) >= -0
MCLin10(3,0,0):  -54 y(0,3,0) + v(3,0,0) - u(3,0,0) >= -54
MCLinV(0,3,1):  x(0,1) - v(0,3,1) - x(3,1) = 3
MCLinV(3,0,1):  - x(0,1) - v(3,0,1) + x(3,1) = 6
MCLin1(0,3,1):  u(0,3,1) >= -0
MCLin2(0,3,1):  -47 y(3,0,1) - u(0,3,1) <= -0
MCLin3(0,3,1):  40 y(3,0,1) + v(0,3,1) - u(0,3,1) <= 40
MCLin4(0,3,1):  40 y(3,0,1) - u(0,3,1) >= -0
MCLin5(0,3,1):  -47 y(3,0,1) + v(0,3,1) - u(0,3,1) >= -47
MCLin6(3,0,1):  u(3,0,1) >= -0
MCLin7(3,0,1):  -49 y(0,3,1) - u(3,0,1) <= -0
MCLin8(3,0,1):  38 y(0,3,1) + v(3,0,1) - u(3,0,1) <= 38
MCLin9(3,0,1):  38 y(0,3,1) - u(3,0,1) >= -0
MCLin10(3,0,1):  -49 y(0,3,1) + v(3,0,1) - u(3,0,1) >= -49
MCLinV(0,3,2):  x(0,2) - v(0,3,2) - x(3,2) = 4
MCLinV(3,0,2):  - x(0,2) - v(3,0,2) + x(3,2) = 7
MCLin1(0,3,2):  u(0,3,2) >= -0
MCLin2(0,3,2):  -51 y(3,0,2) - u(0,3,2) <= -0
MCLin3(0,3,2):  36 y(3,0,2) + v(0,3,2) - u(0,3,2) <= 36
MCLin4(0,3,2):  36 y(3,0,2) - u(0,3,2) >= -0
MCLin5(0,3,2):  -51 y(3,0,2) + v(0,3,2) - u(0,3,2) >= -51
MCLin6(3,0,2):  u(3,0,2) >= -0
MCLin7(3,0,2):  -47 y(0,3,2) - u(3,0,2) <= -0
MCLin8(3,0,2):  40 y(0,3,2) + v(3,0,2) - u(3,0,2) <= 40
MCLin9(3,0,2):  40 y(0,3,2) - u(3,0,2) >= -0
MCLin10(3,0,2):  -47 y(0,3,2) + v(3,0,2) - u(3,0,2) >= -47
MCLinV(1,2,0):  x(1,0) - v(1,2,0) - x(2,0) = 6
MCLinV(2,1,0):  - x(1,0) - v(2,1,0) + x(2,0) = 3
MCLin1(1,2,0):  u(1,2,0) >= -0
MCLin2(1,2,0):  -49 y(2,1,0) - u(1,2,0) <= -0
MCLin3(1,2,0):  47 y(2,1,0) + v(1,2,0) - u(1,2,0) <= 47
MCLin4(1,2,0):  47 y(2,1,0) - u(1,2,0) >= -0
MCLin5(1,2,0):  -49 y(2,1,0) + v(1,2,0) - u(1,2,0) >= -49
MCLin6(2,1,0):  u(2,1,0) >= -0
MCLin7(2,1,0):  -56 y(1,2,0) - u(2,1,0) <= -0
MCLin8(2,1,0):  40 y(1,2,0) + v(2,1,0) - u(2,1,0) <= 40
MCLin9(2,1,0):  40 y(1,2,0) - u(2,1,0) >= -0
MCLin10(2,1,0):  -56 y(1,2,0) + v(2,1,0) - u(2,1,0) >= -56
MCLinV(1,2,1):  x(1,1) - v(1,2,1) - x(2,1) = 4
MCLinV(2,1,1):  - x(1,1) - v(2,1,1) + x(2,1) = 4
MCLin1(1,2,1):  u(1,2,1) >= -0
MCLin2(1,2,1):  -54 y(2,1,1) - u(1,2,1) <= -0
MCLin3(1,2,1):  42 y(2,1,1) + v(1,2,1) - u(1,2,1) <= 42
MCLin4(1,2,1):  42 y(2,1,1) - u(1,2,1) >= -0
MCLin5(1,2,1):  -54 y(2,1,1) + v(1,2,1) - u(1,2,1) >= -54
MCLin6(2,1,1):  u(2,1,1) >= -0
MCLin7(2,1,1):  -50 y(1,2,1) - u(2,1,1) <= -0
MCLin8(2,1,1):  46 y(1,2,1) + v(2,1,1) - u(2,1,1) <= 46
MCLin9(2,1,1):  46 y(1,2,1) - u(2,1,1) >= -0
MCLin10(2,1,1):  -50 y(1,2,1) + v(2,1,1) - u(2,1,1) >= -50
MCLinV(1,2,2):  x(1,2) - v(1,2,2) - x(2,2) = 1
MCLinV(2,1,2):  - x(1,2) - v(2,1,2) + x(2,2) = 8
MCLin1(1,2,2):  u(1,2,2) >= -0
MCLin2(1,2,2):  -51 y(2,1,2) - u(1,2,2) <= -0
MCLin3(1,2,2):  45 y(2,1,2) + v(1,2,2) - u(1,2,2) <= 45
MCLin4(1,2,2):  45 y(2,1,2) - u(1,2,2) >= -0
MCLin5(1,2,2):  -51 y(2,1,2) + v(1,2,2) - u(1,2,2) >= -51
MCLin6(2,1,2):  u(2,1,2) >= -0
MCLin7(2,1,2):  -54 y(1,2,2) - u(2,1,2) <= -0
MCLin8(2,1,2):  42 y(1,2,2) + v(2,1,2) - u(2,1,2) <= 42
MCLin9(2,1,2):  42 y(1,2,2) - u(2,1,2) >= -0
MCLin10(2,1,2):  -54 y(1,2,2) + v(2,1,2) - u(2,1,2) >= -54
MCLinV(1,3,0):  x(1,0) - v(1,3,0) - x(3,0) = 7
MCLinV(3,1,0):  - x(1,0) - v(3,1,0) + x(3,0) = 3
MCLin1(1,3,0):  u(1,3,0) >= -0
MCLin2(1,3,0):  -49 y(3,1,0) - u(1,3,0) <= -0
MCLin3(1,3,0):  44 y(3,1,0) + v(1,3,0) - u(1,3,0) <= 44
MCLin4(1,3,0):  44 y(3,1,0) - u(1,3,0) >= -0
MCLin5(1,3,0):  -49 y(3,1,0) + v(1,3,0) - u(1,3,0) >= -49
MCLin6(3,1,0):  u(3,1,0) >= -0
MCLin7(3,1,0):  -54 y(1,3,0) - u(3,1,0) <= -0
MCLin8(3,1,0):  39 y(1,3,0) + v(3,1,0) - u(3,1,0) <= 39
MCLin9(3,1,0):  39 y(1,3,0) - u(3,1,0) >= -0
MCLin10(3,1,0):  -54 y(1,3,0) + v(3,1,0) - u(3,1,0) >= -54
MCLinV(1,3,1):  x(1,1) - v(1,3,1) - x(3,1) = 3
MCLinV(3,1,1):  - x(1,1) - v(3,1,1) + x(3,1) = 4
MCLin1(1,3,1):  u(1,3,1) >= -0
MCLin2(1,3,1):  -54 y(3,1,1) - u(1,3,1) <= -0
MCLin3(1,3,1):  39 y(3,1,1) + v(1,3,1) - u(1,3,1) <= 39
MCLin4(1,3,1):  39 y(3,1,1) - u(1,3,1) >= -0
MCLin5(1,3,1):  -54 y(3,1,1) + v(1,3,1) - u(1,3,1) >= -54
MCLin6(3,1,1):  u(3,1,1) >= -0
MCLin7(3,1,1):  -46 y(1,3,1) - u(3,1,1) <= -0
MCLin8(3,1,1):  47 y(1,3,1) + v(3,1,1) - u(3,1,1) <= 47
MCLin9(3,1,1):  47 y(1,3,1) - u(3,1,1) >= -0
MCLin10(3,1,1):  -46 y(1,3,1) + v(3,1,1) - u(3,1,1) >= -46
MCLinV(1,3,2):  x(1,2) - v(1,3,2) - x(3,2) = 4
MCLinV(3,1,2):  - x(1,2) - v(3,1,2) + x(3,2) = 8
MCLin1(1,3,2):  u(1,3,2) >= -0
MCLin2(1,3,2):  -47 y(3,1,2) - u(1,3,2) <= -0
MCLin3(1,3,2):  46 y(3,1,2) + v(1,3,2) - u(1,3,2) <= 46
MCLin4(1,3,2):  46 y(3,1,2) - u(1,3,2) >= -0
MCLin5(1,3,2):  -47 y(3,1,2) + v(1,3,2) - u(1,3,2) >= -47
MCLin6(3,1,2):  u(3,1,2) >= -0
MCLin7(3,1,2):  -58 y(1,3,2) - u(3,1,2) <= -0
MCLin8(3,1,2):  35 y(1,3,2) + v(3,1,2) - u(3,1,2) <= 35
MCLin9(3,1,2):  35 y(1,3,2) - u(3,1,2) >= -0
MCLin10(3,1,2):  -58 y(1,3,2) + v(3,1,2) - u(3,1,2) >= -58
MCLinV(2,3,0):  x(2,0) - v(2,3,0) - x(3,0) = 7
MCLinV(3,2,0):  - x(2,0) - v(3,2,0) + x(3,0) = 6
MCLin1(2,3,0):  u(2,3,0) >= -0
MCLin2(2,3,0):  -56 y(3,2,0) - u(2,3,0) <= -0
MCLin3(2,3,0):  41 y(3,2,0) + v(2,3,0) - u(2,3,0) <= 41
MCLin4(2,3,0):  41 y(3,2,0) - u(2,3,0) >= -0
MCLin5(2,3,0):  -56 y(3,2,0) + v(2,3,0) - u(2,3,0) >= -56
MCLin6(3,2,0):  u(3,2,0) >= -0
MCLin7(3,2,0):  -54 y(2,3,0) - u(3,2,0) <= -0
MCLin8(3,2,0):  43 y(2,3,0) + v(3,2,0) - u(3,2,0) <= 43
MCLin9(3,2,0):  43 y(2,3,0) - u(3,2,0) >= -0
MCLin10(3,2,0):  -54 y(2,3,0) + v(3,2,0) - u(3,2,0) >= -54
MCLinV(2,3,1):  x(2,1) - v(2,3,1) - x(3,1) = 3
MCLinV(3,2,1):  - x(2,1) - v(3,2,1) + x(3,1) = 4
MCLin1(2,3,1):  u(2,3,1) >= -0
MCLin2(2,3,1):  -54 y(3,2,1) - u(2,3,1) <= -0
MCLin3(2,3,1):  43 y(3,2,1) + v(2,3,1) - u(2,3,1) <= 43
MCLin4(2,3,1):  43 y(3,2,1) - u(2,3,1) >= -0
MCLin5(2,3,1):  -54 y(3,2,1) + v(2,3,1) - u(2,3,1) >= -54
MCLin6(3,2,1):  u(3,2,1) >= -0
MCLin7(3,2,1):  -50 y(2,3,1) - u(3,2,1) <= -0
MCLin8(3,2,1):  47 y(2,3,1) + v(3,2,1) - u(3,2,1) <= 47
MCLin9(3,2,1):  47 y(2,3,1) - u(3,2,1) >= -0
MCLin10(3,2,1):  -50 y(2,3,1) + v(3,2,1) - u(3,2,1) >= -50
MCLinV(2,3,2):  x(2,2) - v(2,3,2) - x(3,2) = 4
MCLinV(3,2,2):  - x(2,2) - v(3,2,2) + x(3,2) = 1
MCLin1(2,3,2):  u(2,3,2) >= -0
MCLin2(2,3,2):  -47 y(3,2,2) - u(2,3,2) <= -0
MCLin3(2,3,2):  50 y(3,2,2) + v(2,3,2) - u(2,3,2) <= 50
MCLin4(2,3,2):  50 y(3,2,2) - u(2,3,2) >= -0
MCLin5(2,3,2):  -47 y(3,2,2) + v(2,3,2) - u(2,3,2) >= -47
MCLin6(3,2,2):  u(3,2,2) >= -0
MCLin7(3,2,2):  -55 y(2,3,2) - u(3,2,2) <= -0
MCLin8(3,2,2):  42 y(2,3,2) + v(3,2,2) - u(3,2,2) <= 42
MCLin9(3,2,2):  42 y(2,3,2) - u(3,2,2) >= -0
MCLin10(3,2,2):  -55 y(2,3,2) + v(3,2,2) - u(3,2,2) >= -55
makespan(0):  C - x(0,0) >= 8
makespan(1):  C - x(1,0) >= 3
makespan(2):  C - x(2,0) >= 6
makespan(3):  C - x(3,0) >= 7
cut_clique_0(0123,0):  0.02676 x(0,0) + 0.01003 x(1,0) + 0.01104 x(2,0) + 0.01839 x(3,0) >= 1
cut_clique_0(012,0):  0.05660 x(0,0) + 0.01258 x(1,0) >= 1
cut_clique_0(023,0):  0.02183 x(0,0) + 0.01637 x(2,0) + 0.04775 x(3,0) >= 1
cut_clique_0(013,0):  0.04264 x(0,0) + 0.01599 x(1,0) + 0.00733 x(3,0) >= 1
cut_clique_0(123,0):  0.01205 x(1,0) + 0.02410 x(2,0) + 0.06024 x(3,0) >= 1
cut_clique_0(0123,1):  0.25000 x(1,1) + 0.25000 x(2,1) >= 1
cut_clique_0(123,1):  0.25000 x(1,1) + 0.25000 x(2,1) >= 1
cut_clique_0(012,1):  0.25000 x(1,1) + 0.25000 x(2,1) >= 1
cut_clique_0(0123,2):  0.25000 x(0,2) + 0.14286 x(3,2) >= 1
cut_clique_0(012,2):  0.02925 x(0,2) + 0.11268 x(1,2) + 0.01408 x(2,2) >= 1
cut_clique_0(013,2):  0.25000 x(0,2) + 0.14286 x(3,2) >= 1
cut_clique_0(023,2):  0.25000 x(0,2) + 0.14286 x(3,2) >= 1
cut_clique_0(123,2):  0.18182 x(1,2) + 0.02273 x(2,2) >= 1
cut_clique_1(0123,0):  0.05204 x(0,0) + 0.01115 x(1,0) + 0.00372 x(3,0) >= 1
cut_clique_1(013,0):  0.05204 x(0,0) + 0.01115 x(1,0) + 0.00372 x(3,0) >= 1
cut_clique_1(0123,2):  0.05185 x(0,2) + 0.05926 x(1,2) + 0.00741 x(2,2) + 0.02963 x(3,2) >= 1
cut_clique_1(013,2):  0.06034 x(0,2) + 0.06897 x(1,2) + 0.03448 x(3,2) >= 1
cut_clique_0:  0.04005 x(0,0) + 0.01502 x(1,0) + 0.00266 x(2,0) + 0.00605 x(3,0) + 0.01329 x(0,2) >= 1
cut_clique_1:  0.03530 x(0,0) + 0.01324 x(1,0) + 0.00243 x(2,0) + 0.00744 x(3,0) + 0.00665 x(0,2) + 0.00761 x(1,2) + 0.00095 x(2,2) >= 1
Bounds
 0 <= C <= 61
 13 <= x(0,0) <= 53
 0 <= y(0,1,0) <= 1
 0 <= y(1,0,0) <= 1
 -48 <= v(0,1,0) <= 38
 -49 <= v(1,0,0) <= 37
 -610 <= u(0,1,0)
 -610 <= u(1,0,0)
 0 <= y(0,2,0) <= 1
 0 <= y(2,0,0) <= 1
 -48 <= v(0,2,0) <= 42
 -56 <= v(2,0,0) <= 34
 -610 <= u(0,2,0)
 -610 <= u(2,0,0)
 0 <= y(0,3,0) <= 1
 0 <= y(3,0,0) <= 1
 -48 <= v(0,3,0) <= 39
 -54 <= v(3,0,0) <= 33
 -610 <= u(0,3,0)
 -610 <= u(3,0,0)
 12 <= x(1,0) <= 58
 0 <= y(1,2,0) <= 1
 0 <= y(2,1,0) <= 1
 -49 <= v(1,2,0) <= 47
 -56 <= v(2,1,0) <= 40
 -610 <= u(1,2,0)
 -610 <= u(2,1,0)
 0 <= y(1,3,0) <= 1
 0 <= y(3,1,0) <= 1
 -49 <= v(1,3,0) <= 44
 -54 <= v(3,1,0) <= 39
 -610 <= u(1,3,0)
 -610 <= u(3,1,0)
 5 <= x(2,0) <= 55
 0 <= y(2,3,0) <= 1
 0 <= y(3,2,0) <= 1
 -56 <= v(2,3,0) <= 41
 -54 <= v(3,2,0) <= 43
 -610 <= u(2,3,0)
 -610 <= u(3,2,0)
 7 <= x(3,0) <= 54
 7 <= x(0,1) <= 47
 0 <= y(0,1,1) <= 1
 0 <= y(1,0,1) <= 1
 -43 <= v(0,1,1) <= 43
 -53 <= v(1,0,1) <= 33
 -610 <= u(0,1,1)
 -610 <= u(1,0,1)
 0 <= y(0,2,1) <= 1
 0 <= y(2,0,1) <= 1
 -47 <= v(0,2,1) <= 43
 -53 <= v(2,0,1) <= 37
 -610 <= u(0,2,1)
 -610 <= u(2,0,1)
 0 <= y(0,3,1) <= 1
 0 <= y(3,0,1) <= 1
 -47 <= v(0,3,1) <= 40
 -49 <= v(3,0,1) <= 38
 -610 <= u(0,3,1)
 -610 <= u(3,0,1)
 0 <= x(1,1) <= 46
 0 <= y(1,2,1) <= 1
 0 <= y(2,1,1) <= 1
 -54 <= v(1,2,1) <= 42
 -50 <= v(2,1,1) <= 46
 -610 <= u(1,2,1)
 -610 <= u(2,1,1)
 0 <= y(1,3,1) <= 1
 0 <= y(3,1,1) <= 1
 -54 <= v(1,3,1) <= 39
 -46 <= v(3,1,1) <= 47
 -610 <= u(1,3,1)
 -610 <= u(3,1,1)
 0 <= x(2,1) <= 50
 0 <= y(2,3,1) <= 1
 0 <= y(3,2,1) <= 1
 -54 <= v(2,3,1) <= 43
 -50 <= v(3,2,1) <= 47
 -610 <= u(2,3,1)
 -610 <= u(3,2,1)
 4 <= x(3,1) <= 51
 0 <= x(0,2) <= 40
 0 <= y(0,1,2) <= 1
 0 <= y(1,0,2) <= 1
 -58 <= v(0,1,2) <= 28
 -43 <= v(1,0,2) <= 43
 -610 <= u(0,1,2)
 -610 <= u(1,0,2)
 0 <= y(0,2,2) <= 1
 0 <= y(2,0,2) <= 1
 -55 <= v(0,2,2) <= 35
 -43 <= v(2,0,2) <= 47
 -610 <= u(0,2,2)
 -610 <= u(2,0,2)
 0 <= y(0,3,2) <= 1
 0 <= y(3,0,2) <= 1
 -51 <= v(0,3,2) <= 36
 -47 <= v(3,0,2) <= 40
 -610 <= u(0,3,2)
 -610 <= u(3,0,2)
 4 <= x(1,2) <= 50
 0 <= y(1,2,2) <= 1
 0 <= y(2,1,2) <= 1
 -51 <= v(1,2,2) <= 45
 -54 <= v(2,1,2) <= 42
 -610 <= u(1,2,2)
 -610 <= u(2,1,2)
 0 <= y(1,3,2) <= 1
 0 <= y(3,1,2) <= 1
 -47 <= v(1,3,2) <= 46
 -58 <= v(3,1,2) <= 35
 -610 <= u(1,3,2)
 -610 <= u(3,1,2)
 4 <= x(2,2) <= 54
 0 <= y(2,3,2) <= 1
 0 <= y(3,2,2) <= 1
 -47 <= v(2,3,2) <= 50
 -55 <= v(3,2,2) <= 42
 -610 <= u(2,3,2)
 -610 <= u(3,2,2)
 0 <= x(3,2) <= 47
Integers
C x(0,0) y(0,1,0) y(1,0,0) v(0,1,0) v(1,0,0) u(0,1,0) u(1,0,0) y(0,2,0) y(2,0,0) 
v(0,2,0) v(2,0,0) u(0,2,0) u(2,0,0) y(0,3,0) y(3,0,0) v(0,3,0) v(3,0,0) u(0,3,0) u(3,0,0) 
x(1,0) y(1,2,0) y(2,1,0) v(1,2,0) v(2,1,0) u(1,2,0) u(2,1,0) y(1,3,0) y(3,1,0) v(1,3,0) 
v(3,1,0) u(1,3,0) u(3,1,0) x(2,0) y(2,3,0) y(3,2,0) v(2,3,0) v(3,2,0) u(2,3,0) u(3,2,0) 
x(3,0) x(0,1) y(0,1,1) y(1,0,1) v(0,1,1) v(1,0,1) u(0,1,1) u(1,0,1) y(0,2,1) y(2,0,1) 
v(0,2,1) v(2,0,1) u(0,2,1) u(2,0,1) y(0,3,1) y(3,0,1) v(0,3,1) v(3,0,1) u(0,3,1) u(3,0,1) 
x(1,1) y(1,2,1) y(2,1,1) v(1,2,1) v(2,1,1) u(1,2,1) u(2,1,1) y(1,3,1) y(3,1,1) v(1,3,1) 
v(3,1,1) u(1,3,1) u(3,1,1) x(2,1) y(2,3,1) y(3,2,1) v(2,3,1) v(3,2,1) u(2,3,1) u(3,2,1) 
x(3,1) x(0,2) y(0,1,2) y(1,0,2) v(0,1,2) v(1,0,2) u(0,1,2) u(1,0,2) y(0,2,2) y(2,0,2) 
v(0,2,2) v(2,0,2) u(0,2,2) u(2,0,2) y(0,3,2) y(3,0,2) v(0,3,2) v(3,0,2) u(0,3,2) u(3,0,2) 
x(1,2) y(1,2,2) y(2,1,2) v(1,2,2) v(2,1,2) u(1,2,2) u(2,1,2) y(1,3,2) y(3,1,2) v(1,3,2) 
v(3,1,2) u(1,3,2) u(3,1,2) x(2,2) y(2,3,2) y(3,2,2) v(2,3,2) v(3,2,2) u(2,3,2) u(3,2,2) 
x(3,2) 
End
